(set-logic ALL)
(set-option :fmf-bound true)
(set-option :produce-models true)
(declare-sort Object 0)

(declare-fun var322 (Bool) Bool)
(declare-fun var200 (Bool) Bool)
(declare-fun var374 (Bool) Bool)
(declare-fun var109 (Bool) Bool)
(declare-fun var319 (Bool) Bool)
(declare-fun var67 (Bool) Bool)
(declare-fun var169 (Bool) Bool)
(declare-fun var91 (Bool) Bool)
(declare-fun var39 (Bool) Bool)
(declare-fun var42 (Bool) Bool)
(declare-fun var89 (Bool) Bool)
(declare-fun var64 (Bool) Bool)
(declare-fun var291 (Bool) Bool)
(declare-fun var127 (Bool) Bool)
(declare-fun var328 (Bool) Bool)
(declare-fun var220 (Bool) Bool)
(declare-fun var394 (Bool) Bool)
(declare-fun var28 (Bool) Bool)
(declare-fun var356 (Bool) Bool)
(declare-fun var100 (Bool) Bool)
(declare-fun var102 (Bool) Bool)
(declare-fun var18 (Bool) Bool)
(declare-fun var302 (Bool) Bool)
(declare-fun var70 (Bool) Bool)
(declare-fun var165 (Bool) Bool)
(declare-fun var48 (Bool) Bool)
(declare-fun var246 (Bool) Bool)
(declare-fun var65 (Bool) Bool)
(declare-fun var43 (Bool) Bool)
(declare-fun var255 (Bool) Bool)
(declare-fun var112 (Bool) Bool)
(declare-fun var21 (Bool) Bool)
(declare-fun var387 (Bool) Bool)
(declare-fun var66 (Bool) Bool)
(declare-fun var297 (Bool) Bool)
(declare-fun var317 (Bool) Bool)
(declare-fun var9 (Bool) Bool)
(declare-fun var208 (Bool) Bool)
(declare-fun var149 (Bool) Bool)
(declare-fun var60 (Bool) Bool)
(declare-fun var156 (Bool) Bool)
(declare-fun var377 (Bool) Bool)
(declare-fun var128 (Bool) Bool)
(declare-fun var20 (Bool) Bool)
(declare-fun var90 (Bool) Bool)
(declare-fun var214 (Bool) Bool)
(declare-fun var17 (Bool) Bool)
(declare-fun var369 (Bool) Bool)
(declare-fun var63 (Bool) Bool)
(declare-fun var273 (Bool) Bool)
(declare-fun var376 (Bool) Bool)
(declare-fun var49 (Bool) Bool)
(declare-fun var178 (Bool) Bool)
(declare-fun var269 (Bool) Bool)
(declare-fun var321 (Bool) Bool)
(declare-fun var164 (Bool) Bool)
(declare-fun var373 (Bool) Bool)
(declare-fun var157 (Bool) Bool)
(declare-fun var218 (Bool) Bool)
(declare-fun var34 (Bool) Bool)
(declare-fun var350 (Bool) Bool)
(declare-fun var272 (Bool) Bool)
(declare-fun var120 (Bool) Bool)
(declare-fun var230 (Bool) Bool)
(declare-fun var236 (Bool) Bool)
(declare-fun var55 (Bool) Bool)
(declare-fun var380 (Bool) Bool)
(declare-fun var188 (Bool) Bool)
(declare-fun var225 (Bool) Bool)
(declare-fun var349 (Bool) Bool)
(declare-fun var281 (Bool) Bool)
(declare-fun var168 (Bool) Bool)
(declare-fun var352 (Bool) Bool)
(declare-fun var368 (Bool) Bool)
(declare-fun var116 (Bool) Bool)
(declare-fun var182 (Bool) Bool)
(declare-fun var223 (Bool) Bool)
(declare-fun var250 (Bool) Bool)
(declare-fun var138 (Bool) Bool)
(declare-fun var267 (Bool) Bool)
(declare-fun var201 (Bool) Bool)
(declare-fun var211 (Bool) Bool)
(declare-fun var92 (Bool) Bool)
(declare-fun var177 (Bool) Bool)
(declare-fun var199 (Bool) Bool)
(declare-fun var337 (Bool) Bool)
(declare-fun var386 (Bool) Bool)
(declare-fun var77 (Bool) Bool)
(declare-fun var33 (Bool) Bool)
(declare-fun var245 (Bool) Bool)
(declare-fun var132 (Bool) Bool)
(declare-fun var342 (Bool) Bool)
(declare-fun var361 (Bool) Bool)
(declare-fun var115 (Bool) Bool)
(declare-fun var332 (Bool) Bool)
(declare-fun var306 (Bool) Bool)
(declare-fun var113 (Bool) Bool)
(declare-fun var125 (Bool) Bool)
(declare-fun var186 (Bool) Bool)
(declare-fun var378 (Bool) Bool)
(declare-fun var86 (Bool) Bool)
(declare-fun var95 (Bool) Bool)
(declare-fun var110 (Bool) Bool)
(declare-fun var263 (Bool) Bool)
(declare-fun var23 (Bool) Bool)
(declare-fun var79 (Bool) Bool)
(declare-fun var161 (Bool) Bool)
(declare-fun var256 (Bool) Bool)
(declare-fun var111 (Bool) Bool)
(declare-fun var69 (Bool) Bool)
(declare-fun var181 (Bool) Bool)
(declare-fun var53 (Bool) Bool)
(declare-fun var24 (Bool) Bool)
(declare-fun var108 (Bool) Bool)
(declare-fun var249 (Bool) Bool)
(declare-fun var232 (Bool) Bool)
(declare-fun var309 (Bool) Bool)
(declare-fun var139 (Bool) Bool)
(declare-fun var84 (Bool) Bool)
(declare-fun var367 (Bool) Bool)
(declare-fun var195 (Bool) Bool)
(declare-fun var56 (Bool) Bool)
(declare-fun var276 (Bool) Bool)
(declare-fun var270 (Bool) Bool)
(declare-fun var104 (Bool) Bool)
(declare-fun var248 (Bool) Bool)
(declare-fun var197 (Bool) Bool)
(declare-fun var206 (Bool) Bool)
(declare-fun var82 (Bool) Bool)
(declare-fun var107 (Bool) Bool)
(declare-fun var397 (Bool) Bool)
(declare-fun var298 (Bool) Bool)
(declare-fun var152 (Bool) Bool)
(declare-fun var217 (Bool) Bool)
(declare-fun var10 (Bool) Bool)
(declare-fun var271 (Bool) Bool)
(declare-fun var296 (Bool) Bool)
(declare-fun var325 (Bool) Bool)
(declare-fun var283 (Bool) Bool)
(declare-fun var131 (Bool) Bool)
(declare-fun var222 (Bool) Bool)
(declare-fun var78 (Bool) Bool)
(declare-fun var286 (Bool) Bool)
(declare-fun var316 (Bool) Bool)
(declare-fun var334 (Bool) Bool)
(declare-fun var221 (Bool) Bool)
(declare-fun var163 (Bool) Bool)
(declare-fun var173 (Bool) Bool)
(declare-fun var354 (Bool) Bool)
(declare-fun var264 (Bool) Bool)
(declare-fun var15 (Bool) Bool)
(declare-fun var251 (Bool) Bool)
(declare-fun var19 (Bool) Bool)
(declare-fun var299 (Bool) Bool)
(declare-fun var240 (Bool) Bool)
(declare-fun var329 (Bool) Bool)
(declare-fun var189 (Bool) Bool)
(declare-fun var282 (Bool) Bool)
(declare-fun var375 (Bool) Bool)
(declare-fun var80 (Bool) Bool)
(declare-fun var134 (Bool) Bool)
(declare-fun var159 (Bool) Bool)
(declare-fun var150 (Bool) Bool)
(declare-fun var160 (Bool) Bool)
(declare-fun var260 (Bool) Bool)
(declare-fun var52 (Bool) Bool)
(declare-fun var93 (Bool) Bool)
(declare-fun var301 (Bool) Bool)
(declare-fun var36 (Bool) Bool)
(declare-fun var205 (Bool) Bool)
(declare-fun var379 (Bool) Bool)
(declare-fun var330 (Bool) Bool)
(declare-fun var278 (Bool) Bool)
(declare-fun var372 (Bool) Bool)
(declare-fun var265 (Bool) Bool)
(declare-fun var174 (Bool) Bool)
(declare-fun var47 (Bool) Bool)
(declare-fun var58 (Bool) Bool)
(declare-fun var148 (Bool) Bool)
(declare-fun var144 (Bool) Bool)
(declare-fun var94 (Bool) Bool)
(declare-fun var209 (Bool) Bool)
(declare-fun var14 (Bool) Bool)
(declare-fun var11 (Bool) Bool)
(declare-fun var26 (Bool) Bool)
(declare-fun var254 (Bool) Bool)
(declare-fun var280 (Bool) Bool)
(declare-fun var381 (Bool) Bool)
(declare-fun var180 (Bool) Bool)
(declare-fun var194 (Bool) Bool)
(declare-fun var192 (Bool) Bool)
(declare-fun var311 (Bool) Bool)
(declare-fun var341 (Bool) Bool)
(declare-fun var136 (Bool) Bool)
(declare-fun var46 (Bool) Bool)
(declare-fun var395 (Bool) Bool)
(declare-fun var105 (Bool) Bool)
(declare-fun var6 (Bool) Bool)
(declare-fun var103 (Bool) Bool)
(declare-fun var83 (Bool) Bool)
(declare-fun var253 (Bool) Bool)
(declare-fun var370 (Bool) Bool)
(declare-fun var117 (Bool) Bool)
(declare-fun var300 (Bool) Bool)
(declare-fun var122 (Bool) Bool)
(declare-fun var5 (Bool) Bool)
(declare-fun var171 (Bool) Bool)
(declare-fun var313 (Bool) Bool)
(declare-fun var358 (Bool) Bool)
(declare-fun var239 (Bool) Bool)
(declare-fun var88 (Bool) Bool)
(declare-fun var114 (Bool) Bool)
(declare-fun var261 (Bool) Bool)
(declare-fun var124 (Bool) Bool)
(declare-fun var50 (Bool) Bool)
(declare-fun var304 (Bool) Bool)
(declare-fun var72 (Bool) Bool)
(declare-fun var187 (Bool) Bool)
(declare-fun var12 (Bool) Bool)
(declare-fun var44 (Bool) Bool)
(declare-fun var268 (Bool) Bool)
(declare-fun var3 (Bool) Bool)
(declare-fun var184 (Bool) Bool)
(declare-fun var142 (Bool) Bool)
(declare-fun var85 (Bool) Bool)
(declare-fun var16 (Bool) Bool)
(declare-fun var226 (Bool) Bool)
(declare-fun var318 (Bool) Bool)
(declare-fun var288 (Bool) Bool)
(declare-fun var315 (Bool) Bool)
(declare-fun var310 (Bool) Bool)
(declare-fun var400 (Bool) Bool)
(declare-fun var398 (Bool) Bool)
(declare-fun var87 (Bool) Bool)
(declare-fun var345 (Bool) Bool)
(declare-fun var275 (Bool) Bool)
(declare-fun var237 (Bool) Bool)
(declare-fun var98 (Bool) Bool)
(declare-fun var284 (Bool) Bool)
(declare-fun var129 (Bool) Bool)
(declare-fun var224 (Bool) Bool)
(declare-fun var204 (Bool) Bool)
(declare-fun var277 (Bool) Bool)
(declare-fun var290 (Bool) Bool)
(declare-fun var235 (Bool) Bool)
(declare-fun var353 (Bool) Bool)
(declare-fun var179 (Bool) Bool)
(declare-fun var393 (Bool) Bool)
(declare-fun var307 (Bool) Bool)
(declare-fun var37 (Bool) Bool)
(declare-fun var76 (Bool) Bool)
(declare-fun var143 (Bool) Bool)
(declare-fun var193 (Bool) Bool)
(declare-fun var45 (Bool) Bool)
(declare-fun var146 (Bool) Bool)
(declare-fun var258 (Bool) Bool)
(declare-fun var7 (Bool) Bool)
(declare-fun var198 (Bool) Bool)
(declare-fun var339 (Bool) Bool)
(declare-fun var335 (Bool) Bool)
(declare-fun var293 (Bool) Bool)
(declare-fun var135 (Bool) Bool)
(declare-fun var155 (Bool) Bool)
(declare-fun var31 (Bool) Bool)
(declare-fun var25 (Bool) Bool)
(declare-fun var391 (Bool) Bool)
(declare-fun var362 (Bool) Bool)
(declare-fun var347 (Bool) Bool)
(declare-fun var59 (Bool) Bool)
(declare-fun var247 (Bool) Bool)
(declare-fun var162 (Bool) Bool)
(declare-fun var303 (Bool) Bool)
(declare-fun var216 (Bool) Bool)
(declare-fun var71 (Bool) Bool)
(declare-fun var233 (Bool) Bool)
(declare-fun var137 (Bool) Bool)
(declare-fun var252 (Bool) Bool)
(declare-fun var145 (Bool) Bool)
(declare-fun var383 (Bool) Bool)
(declare-fun var27 (Bool) Bool)
(declare-fun var121 (Bool) Bool)
(declare-fun var314 (Bool) Bool)
(declare-fun var62 (Bool) Bool)
(declare-fun var333 (Bool) Bool)
(declare-fun var96 (Bool) Bool)
(declare-fun var238 (Bool) Bool)
(declare-fun var8 (Bool) Bool)
(declare-fun var2 (Bool) Bool)
(declare-fun var266 (Bool) Bool)
(declare-fun var234 (Bool) Bool)
(declare-fun var30 (Bool) Bool)
(declare-fun var176 (Bool) Bool)
(declare-fun var371 (Bool) Bool)
(declare-fun var336 (Bool) Bool)
(declare-fun var243 (Bool) Bool)
(declare-fun var203 (Bool) Bool)
(declare-fun var365 (Bool) Bool)
(declare-fun var170 (Bool) Bool)
(declare-fun var166 (Bool) Bool)
(declare-fun var241 (Bool) Bool)
(declare-fun var279 (Bool) Bool)
(declare-fun var262 (Bool) Bool)
(declare-fun var305 (Bool) Bool)
(declare-fun var22 (Bool) Bool)
(declare-fun var172 (Bool) Bool)
(declare-fun var348 (Bool) Bool)
(declare-fun var123 (Bool) Bool)
(declare-fun var190 (Bool) Bool)
(declare-fun var382 (Bool) Bool)
(declare-fun var40 (Bool) Bool)
(declare-fun var323 (Bool) Bool)
(declare-fun var196 (Bool) Bool)
(declare-fun var207 (Bool) Bool)
(declare-fun var147 (Bool) Bool)
(declare-fun var326 (Bool) Bool)
(declare-fun var158 (Bool) Bool)
(declare-fun var360 (Bool) Bool)
(declare-fun var126 (Bool) Bool)
(declare-fun var384 (Bool) Bool)
(declare-fun var259 (Bool) Bool)
(declare-fun var101 (Bool) Bool)
(declare-fun var215 (Bool) Bool)
(declare-fun var61 (Bool) Bool)
(declare-fun var320 (Bool) Bool)
(declare-fun var338 (Bool) Bool)
(declare-fun var229 (Bool) Bool)
(declare-fun var185 (Bool) Bool)
(declare-fun var1 (Bool) Bool)
(declare-fun var57 (Bool) Bool)
(declare-fun var231 (Bool) Bool)
(declare-fun var392 (Bool) Bool)
(declare-fun var99 (Bool) Bool)
(declare-fun var389 (Bool) Bool)
(declare-fun var68 (Bool) Bool)
(declare-fun var344 (Bool) Bool)
(declare-fun var359 (Bool) Bool)
(declare-fun var287 (Bool) Bool)
(declare-fun var396 (Bool) Bool)
(declare-fun var141 (Bool) Bool)
(declare-fun var285 (Bool) Bool)
(declare-fun var191 (Bool) Bool)
(declare-fun var167 (Bool) Bool)
(declare-fun var74 (Bool) Bool)
(declare-fun var388 (Bool) Bool)
(declare-fun var154 (Bool) Bool)
(declare-fun var35 (Bool) Bool)
(declare-fun var54 (Bool) Bool)
(declare-fun var331 (Bool) Bool)
(declare-fun var274 (Bool) Bool)
(declare-fun var210 (Bool) Bool)
(declare-fun var343 (Bool) Bool)
(declare-fun var81 (Bool) Bool)
(declare-fun var242 (Bool) Bool)
(declare-fun var308 (Bool) Bool)
(declare-fun var340 (Bool) Bool)
(declare-fun var351 (Bool) Bool)
(declare-fun var257 (Bool) Bool)
(declare-fun var13 (Bool) Bool)
(declare-fun var75 (Bool) Bool)
(declare-fun var355 (Bool) Bool)
(declare-fun var366 (Bool) Bool)
(declare-fun var32 (Bool) Bool)
(declare-fun var228 (Bool) Bool)
(declare-fun var29 (Bool) Bool)
(declare-fun var289 (Bool) Bool)
(declare-fun var294 (Bool) Bool)
(declare-fun var140 (Bool) Bool)
(declare-fun var295 (Bool) Bool)
(declare-fun var364 (Bool) Bool)
(declare-fun var119 (Bool) Bool)
(declare-fun var73 (Bool) Bool)
(declare-fun var51 (Bool) Bool)
(declare-fun var151 (Bool) Bool)
(declare-fun var213 (Bool) Bool)
(declare-fun var202 (Bool) Bool)
(declare-fun var97 (Bool) Bool)
(declare-fun var399 (Bool) Bool)
(declare-fun var219 (Bool) Bool)
(declare-fun var244 (Bool) Bool)
(declare-fun var346 (Bool) Bool)
(declare-fun var4 (Bool) Bool)
(declare-fun var385 (Bool) Bool)
(declare-fun var153 (Bool) Bool)
(declare-fun var357 (Bool) Bool)
(declare-fun var212 (Bool) Bool)
(declare-fun var390 (Bool) Bool)
(declare-fun var41 (Bool) Bool)
(declare-fun var38 (Bool) Bool)
(declare-fun var130 (Bool) Bool)
(declare-fun var106 (Bool) Bool)
(declare-fun var324 (Bool) Bool)
(declare-fun var183 (Bool) Bool)
(declare-fun var227 (Bool) Bool)
(declare-fun var118 (Bool) Bool)
(declare-fun var327 (Bool) Bool)
(declare-fun var133 (Bool) Bool)
(declare-fun var363 (Bool) Bool)
(declare-fun var312 (Bool) Bool)
(declare-fun var292 (Bool) Bool)
(declare-fun var175 (Bool) Bool)
(declare-fun GTE (Bool Bool) Bool)
(define-fun implies ((p Bool)(q Bool)) Bool (or (not p) q))

(assert (forall ((x Bool)) (not(or (var322 x) (not(var200 x))))))
(assert (forall ((x Bool)) (not(or (not(var374 x)) (not(var109 x))))))
(assert (forall ((x Bool)) (not(or (not(var319 x)) (not(var67 x))))))
(assert (forall ((x Bool)) (not(or (not(var169 x)) (not(var91 x))))))
(assert (forall ((x Bool)) (not(or (not(var39 x)) (var42 x)))))
(assert (forall ((x Bool)) (not(or (not(var89 x)) (var64 x)))))
(assert (forall ((x Bool)) (not(or (var291 x) (var127 x)))))
(assert (forall ((x Bool)) (not(or (var328 x) (not(var220 x))))))
(assert (forall ((x Bool)) (not(or (var394 x) (not(var28 x))))))
(assert (forall ((x Bool)) (not(or (var356 x) (not(var100 x))))))
(assert (forall ((x Bool)) (not(or (not(var102 x)) (var18 x)))))
(assert (forall ((x Bool)) (not(or (not(var302 x)) (not(var70 x))))))
(assert (forall ((x Bool)) (not(or (not(var165 x)) (var48 x)))))
(assert (forall ((x Bool)) (not(or (var246 x) (var65 x)))))
(assert (forall ((x Bool)) (not(or (not(var43 x)) (not(var255 x))))))
(assert (forall ((x Bool)) (not(or (var112 x) (var21 x)))))
(assert (forall ((x Bool)) (not(or (not(var387 x)) (var66 x)))))
(assert (forall ((x Bool)) (not(or (var297 x) (var317 x)))))
(assert (forall ((x Bool)) (not(or (var9 x) (not(var208 x))))))
(assert (forall ((x Bool)) (not(or (var149 x) (not(var60 x))))))
(assert (forall ((x Bool)) (not(or (not(var156 x)) (not(var377 x))))))
(assert (forall ((x Bool)) (not(or (var128 x) (not(var20 x))))))
(assert (forall ((x Bool)) (not(or (not(var90 x)) (var214 x)))))
(assert (forall ((x Bool)) (not(or (var17 x) (var369 x)))))
(assert (forall ((x Bool)) (not(or (var63 x) (not(var273 x))))))
(assert (forall ((x Bool)) (not(or (not(var376 x)) (var49 x)))))
(assert (forall ((x Bool)) (not(or (var178 x) (not(var269 x))))))
(assert (forall ((x Bool)) (not(or (var321 x) (not(var164 x))))))
(assert (forall ((x Bool)) (not(or (var373 x) (not(var157 x))))))
(assert (forall ((x Bool)) (not(or (var218 x) (not(var34 x))))))
(assert (forall ((x Bool)) (not(or (var350 x) (var272 x)))))
(assert (forall ((x Bool)) (not(or (var120 x) (var230 x)))))
(assert (forall ((x Bool)) (not(or (var236 x) (var55 x)))))
(assert (forall ((x Bool)) (not(or (not(var380 x)) (not(var188 x))))))
(assert (forall ((x Bool)) (not(or (not(var225 x)) (var349 x)))))
(assert (forall ((x Bool)) (not(or (not(var281 x)) (not(var168 x))))))
(assert (forall ((x Bool)) (not(or (not(var352 x)) (not(var368 x))))))
(assert (forall ((x Bool)) (not(or (var116 x) (var182 x)))))
(assert (forall ((x Bool)) (not(or (not(var223 x)) (var250 x)))))
(assert (forall ((x Bool)) (not(or (not(var138 x)) (var267 x)))))
(assert (forall ((x Bool)) (not(or (not(var201 x)) (var211 x)))))
(assert (forall ((x Bool)) (not(or (not(var92 x)) (var177 x)))))
(assert (forall ((x Bool)) (not(or (not(var199 x)) (var337 x)))))
(assert (forall ((x Bool)) (not(or (var386 x) (var77 x)))))
(assert (forall ((x Bool)) (not(or (not(var33 x)) (var245 x)))))
(assert (forall ((x Bool)) (not(or (var132 x) (var342 x)))))
(assert (forall ((x Bool)) (not(or (var361 x) (var115 x)))))
(assert (forall ((x Bool)) (not(or (not(var332 x)) (not(var306 x))))))
(assert (forall ((x Bool)) (not(or (not(var113 x)) (var125 x)))))
(assert (forall ((x Bool)) (not(or (var186 x) (not(var378 x))))))
(assert (forall ((x Bool)) (not(or (var86 x) (not(var95 x))))))
(assert (forall ((x Bool)) (not(or (not(var110 x)) (not(var263 x))))))
(assert (forall ((x Bool)) (not(or (var23 x) (not(var79 x))))))
(assert (forall ((x Bool)) (not(or (not(var161 x)) (not(var256 x))))))
(assert (forall ((x Bool)) (not(or (var111 x) (not(var69 x))))))
(assert (forall ((x Bool)) (not(or (not(var181 x)) (not(var53 x))))))
(assert (forall ((x Bool)) (not(or (var24 x) (var108 x)))))
(assert (forall ((x Bool)) (not(or (var249 x) (var232 x)))))
(assert (forall ((x Bool)) (not(or (not(var309 x)) (var139 x)))))
(assert (forall ((x Bool)) (not(or (var84 x) (not(var367 x))))))
(assert (forall ((x Bool)) (not(or (not(var195 x)) (var56 x)))))
(assert (forall ((x Bool)) (not(or (var276 x) (not(var270 x))))))
(assert (forall ((x Bool)) (not(or (not(var104 x)) (not(var248 x))))))
(assert (forall ((x Bool)) (not(or (not(var197 x)) (not(var206 x))))))
(assert (forall ((x Bool)) (not(or (var82 x) (var107 x)))))
(assert (forall ((x Bool)) (not(or (not(var397 x)) (var298 x)))))
(assert (forall ((x Bool)) (not(or (not(var152 x)) (var217 x)))))
(assert (forall ((x Bool)) (not(or (not(var10 x)) (var271 x)))))
(assert (forall ((x Bool)) (not(or (var296 x) (not(var325 x))))))
(assert (forall ((x Bool)) (not(or (var283 x) (not(var131 x))))))
(assert (forall ((x Bool)) (not(or (var222 x) (not(var78 x))))))
(assert (forall ((x Bool)) (not(or (not(var286 x)) (var316 x)))))
(assert (forall ((x Bool)) (not(or (not(var334 x)) (not(var221 x))))))
(assert (forall ((x Bool)) (not(or (var163 x) (not(var173 x))))))
(assert (forall ((x Bool)) (not(or (var354 x) (var264 x)))))
(assert (forall ((x Bool)) (not(or (not(var15 x)) (not(var251 x))))))
(assert (forall ((x Bool)) (not(or (not(var19 x)) (var299 x)))))
(assert (forall ((x Bool)) (not(or (var240 x) (var329 x)))))
(assert (forall ((x Bool)) (not(or (not(var189 x)) (not(var282 x))))))
(assert (forall ((x Bool)) (not(or (not(var375 x)) (not(var80 x))))))
(assert (forall ((x Bool)) (not(or (not(var134 x)) (var159 x)))))
(assert (forall ((x Bool)) (not(or (not(var150 x)) (not(var160 x))))))
(assert (forall ((x Bool)) (not(or (var260 x) (var52 x)))))
(assert (forall ((x Bool)) (not(or (not(var93 x)) (var301 x)))))
(assert (forall ((x Bool)) (not(or (var36 x) (var205 x)))))
(assert (forall ((x Bool)) (not(or (var379 x) (var330 x)))))
(assert (forall ((x Bool)) (not(or (var278 x) (var372 x)))))
(assert (forall ((x Bool)) (not(or (var265 x) (not(var174 x))))))
(assert (forall ((x Bool)) (not(or (not(var47 x)) (not(var58 x))))))
(assert (forall ((x Bool)) (not(or (var148 x) (var144 x)))))
(assert (forall ((x Bool)) (not(or (not(var94 x)) (not(var209 x))))))
(assert (forall ((x Bool)) (not(or (not(var14 x)) (not(var11 x))))))
(assert (forall ((x Bool)) (not(or (var26 x) (not(var254 x))))))
(assert (forall ((x Bool)) (not(or (not(var280 x)) (not(var381 x))))))
(assert (forall ((x Bool)) (not(or (var180 x) (var194 x)))))
(assert (forall ((x Bool)) (not(or (var192 x) (var311 x)))))
(assert (forall ((x Bool)) (not(or (var341 x) (var136 x)))))
(assert (forall ((x Bool)) (not(or (var46 x) (not(var395 x))))))
(assert (forall ((x Bool)) (not(or (var105 x) (var6 x)))))
(assert (forall ((x Bool)) (not(or (not(var103 x)) (not(var83 x))))))
(assert (forall ((x Bool))  (exists ((x1 Bool)) (and(GTE x x1)  (implies (var253 x1) (var370 x))))))
(assert (forall ((x Bool))  (exists ((x1 Bool)) (and(GTE x x1)  (implies (var117 x1) (not(var300 x)))))))
(assert (forall ((x Bool))  (exists ((x1 Bool)) (and(GTE x x1)  (implies (not(var122 x1)) (var5 x))))))
(assert (forall ((x Bool))  (exists ((x1 Bool)) (and(GTE x x1)  (implies (not(var171 x1)) (var313 x))))))
(assert (forall ((x Bool))  (exists ((x1 Bool)) (and(GTE x x1)  (implies (var358 x1) (not(var239 x)))))))
(assert (forall ((x Bool))  (exists ((x1 Bool)) (and(GTE x x1)  (implies (not(var88 x1)) (var114 x))))))
(assert (forall ((x Bool))  (exists ((x1 Bool)) (and(GTE x x1)  (implies (not(var261 x1)) (var124 x))))))
(assert (forall ((x Bool))  (exists ((x1 Bool)) (and(GTE x x1)  (implies (not(var50 x1)) (var304 x))))))
(assert (forall ((x Bool))  (exists ((x1 Bool)) (and(GTE x x1)  (implies (not(var72 x1)) (var187 x))))))
(assert (forall ((x Bool))  (exists ((x1 Bool)) (and(GTE x x1)  (implies (var12 x1) (not(var44 x)))))))
(assert (forall ((x Bool))  (exists ((x1 Bool)) (and(GTE x x1)  (implies (not(var268 x1)) (not(var3 x)))))))
(assert (forall ((x Bool))  (exists ((x1 Bool)) (and(GTE x x1)  (implies (not(var184 x1)) (not(var142 x)))))))
(assert (forall ((x Bool))  (exists ((x1 Bool)) (and(GTE x x1)  (implies (not(var85 x1)) (not(var16 x)))))))
(assert (forall ((x Bool))  (exists ((x1 Bool)) (and(GTE x x1)  (implies (var226 x1) (not(var318 x)))))))
(assert (forall ((x Bool))  (exists ((x1 Bool)) (and(GTE x x1)  (implies (var288 x1) (not(var315 x)))))))
(assert (forall ((x Bool))  (exists ((x1 Bool)) (and(GTE x x1)  (implies (var310 x1) (var400 x))))))
(assert (forall ((x Bool))  (exists ((x1 Bool)) (and(GTE x x1)  (implies (not(var398 x1)) (not(var87 x)))))))
(assert (forall ((x Bool))  (exists ((x1 Bool)) (and(GTE x x1)  (implies (not(var345 x1)) (var275 x))))))
(assert (forall ((x Bool))  (exists ((x1 Bool)) (and(GTE x x1)  (implies (var237 x1) (var98 x))))))
(assert (forall ((x Bool))  (exists ((x1 Bool)) (and(GTE x x1)  (implies (not(var284 x1)) (not(var129 x)))))))
(assert (forall ((x Bool))  (exists ((x1 Bool)) (and(GTE x x1)  (implies (var224 x1) (not(var204 x)))))))
(assert (forall ((x Bool))  (exists ((x1 Bool)) (and(GTE x x1)  (implies (not(var277 x1)) (var290 x))))))
(assert (forall ((x Bool))  (exists ((x1 Bool)) (and(GTE x x1)  (implies (var235 x1) (not(var353 x)))))))
(assert (forall ((x Bool))  (exists ((x1 Bool)) (and(GTE x x1)  (implies (not(var179 x1)) (var393 x))))))
(assert (forall ((x Bool))  (exists ((x1 Bool)) (and(GTE x x1)  (implies (var307 x1) (not(var37 x)))))))
(assert (forall ((x Bool))  (exists ((x1 Bool)) (and(GTE x x1)  (implies (not(var76 x1)) (not(var143 x)))))))
(assert (forall ((x Bool))  (exists ((x1 Bool)) (and(GTE x x1)  (implies (var193 x1) (not(var45 x)))))))
(assert (forall ((x Bool))  (exists ((x1 Bool)) (and(GTE x x1)  (implies (not(var146 x1)) (not(var258 x)))))))
(assert (forall ((x Bool))  (exists ((x1 Bool)) (and(GTE x x1)  (implies (var7 x1) (not(var198 x)))))))
(assert (forall ((x Bool))  (exists ((x1 Bool)) (and(GTE x x1)  (implies (var339 x1) (var335 x))))))
(assert (forall ((x Bool))  (exists ((x1 Bool)) (and(GTE x x1)  (implies (not(var293 x1)) (not(var135 x)))))))
(assert (forall ((x Bool))  (exists ((x1 Bool)) (and(GTE x x1)  (implies (var155 x1) (not(var31 x)))))))
(assert (forall ((x Bool))  (exists ((x1 Bool)) (and(GTE x x1)  (implies (not(var25 x1)) (var391 x))))))
(assert (forall ((x Bool))  (exists ((x1 Bool)) (and(GTE x x1)  (implies (var362 x1) (not(var347 x)))))))
(assert (forall ((x Bool))  (exists ((x1 Bool)) (and(GTE x x1)  (implies (var59 x1) (var247 x))))))
(assert (forall ((x Bool))  (exists ((x1 Bool)) (and(GTE x x1)  (implies (not(var162 x1)) (var303 x))))))
(assert (forall ((x Bool))  (exists ((x1 Bool)) (and(GTE x x1)  (implies (var216 x1) (var71 x))))))
(assert (forall ((x Bool))  (exists ((x1 Bool)) (and(GTE x x1)  (implies (var233 x1) (var137 x))))))
(assert (forall ((x Bool))  (exists ((x1 Bool)) (and(GTE x x1)  (implies (not(var252 x1)) (var145 x))))))
(assert (forall ((x Bool))  (exists ((x1 Bool)) (and(GTE x x1)  (implies (not(var383 x1)) (var27 x))))))
(assert (forall ((x Bool))  (exists ((x1 Bool)) (and(GTE x x1)  (implies (not(var121 x1)) (var314 x))))))
(assert (forall ((x Bool))  (exists ((x1 Bool)) (and(GTE x x1)  (implies (var62 x1) (not(var333 x)))))))
(assert (forall ((x Bool))  (exists ((x1 Bool)) (and(GTE x x1)  (implies (var96 x1) (not(var238 x)))))))
(assert (forall ((x Bool))  (exists ((x1 Bool)) (and(GTE x x1)  (implies (var8 x1) (not(var2 x)))))))
(assert (forall ((x Bool))  (exists ((x1 Bool)) (and(GTE x x1)  (implies (not(var266 x1)) (not(var234 x)))))))
(assert (forall ((x Bool))  (exists ((x1 Bool)) (and(GTE x x1)  (implies (not(var30 x1)) (var176 x))))))
(assert (forall ((x Bool))  (exists ((x1 Bool)) (and(GTE x x1)  (implies (not(var371 x1)) (var336 x))))))
(assert (forall ((x Bool))  (exists ((x1 Bool)) (and(GTE x x1)  (implies (var243 x1) (var203 x))))))
(assert (forall ((x Bool))  (exists ((x1 Bool)) (and(GTE x x1)  (implies (not(var365 x1)) (not(var170 x)))))))
(assert (forall ((x Bool))  (exists ((x1 Bool)) (and(GTE x x1)  (implies (var166 x1) (var241 x))))))
(assert (forall ((x Bool))  (exists ((x1 Bool)) (and(GTE x x1)  (implies (not(var279 x1)) (not(var262 x)))))))
(assert (forall ((x Bool))  (exists ((x1 Bool)) (and(GTE x x1)  (implies (not(var305 x1)) (not(var22 x)))))))
(assert (forall ((x Bool))  (exists ((x1 Bool)) (and(GTE x x1)  (implies (var172 x1) (not(var348 x)))))))
(assert (forall ((x Bool))  (exists ((x1 Bool)) (and(GTE x x1)  (implies (var123 x1) (not(var190 x)))))))
(assert (forall ((x Bool))  (exists ((x1 Bool)) (and(GTE x x1)  (implies (not(var382 x1)) (not(var40 x)))))))
(assert (forall ((x Bool))  (exists ((x1 Bool)) (and(GTE x x1)  (implies (not(var323 x1)) (not(var196 x)))))))
(assert (forall ((x Bool))  (exists ((x1 Bool)) (and(GTE x x1)  (implies (not(var207 x1)) (not(var147 x)))))))
(assert (forall ((x Bool))  (exists ((x1 Bool)) (and(GTE x x1)  (implies (not(var326 x1)) (not(var158 x)))))))
(assert (forall ((x Bool))  (exists ((x1 Bool)) (and(GTE x x1)  (implies (var360 x1) (var126 x))))))
(assert (forall ((x Bool))  (exists ((x1 Bool)) (and(GTE x x1)  (implies (var384 x1) (not(var259 x)))))))
(assert (forall ((x Bool))  (exists ((x1 Bool)) (and(GTE x x1)  (implies (not(var101 x1)) (var215 x))))))
(assert (forall ((x Bool))  (exists ((x1 Bool)) (and(GTE x x1)  (implies (var61 x1) (var320 x))))))
(assert (forall ((x Bool))  (exists ((x1 Bool)) (and(GTE x x1)  (implies (var338 x1) (not(var229 x)))))))
(assert (forall ((x Bool))  (exists ((x1 Bool)) (and(GTE x x1)  (implies (var185 x1) (not(var1 x)))))))
(assert (forall ((x Bool))  (exists ((x1 Bool)) (and(GTE x x1)  (implies (var57 x1) (not(var231 x)))))))
(assert (forall ((x Bool))  (exists ((x1 Bool)) (and(GTE x x1)  (implies (not(var392 x1)) (var99 x))))))
(assert (forall ((x Bool))  (exists ((x1 Bool)) (and(GTE x x1)  (implies (not(var389 x1)) (not(var68 x)))))))
(assert (forall ((x Bool))  (exists ((x1 Bool)) (and(GTE x x1)  (implies (not(var344 x1)) (not(var359 x)))))))
(assert (forall ((x Bool))  (exists ((x1 Bool)) (and(GTE x x1)  (implies (var287 x1) (var396 x))))))
(assert (forall ((x Bool))  (exists ((x1 Bool)) (and(GTE x x1)  (implies (not(var141 x1)) (var285 x))))))
(assert (forall ((x Bool))  (exists ((x1 Bool)) (and(GTE x x1)  (implies (var191 x1) (var167 x))))))
(assert (forall ((x Bool))  (exists ((x1 Bool)) (and(GTE x x1)  (implies (var74 x1) (var388 x))))))
(assert (forall ((x Bool))  (exists ((x1 Bool)) (and(GTE x x1)  (implies (var154 x1) (not(var35 x)))))))
(assert (forall ((x Bool))  (exists ((x1 Bool)) (and(GTE x x1)  (implies (not(var54 x1)) (not(var331 x)))))))
(assert (forall ((x Bool))  (exists ((x1 Bool)) (and(GTE x x1)  (implies (not(var274 x1)) (var210 x))))))
(assert (forall ((x Bool))  (exists ((x1 Bool)) (and(GTE x x1)  (implies (not(var343 x1)) (not(var81 x)))))))
(assert (forall ((x Bool))  (exists ((x1 Bool)) (and(GTE x x1)  (implies (not(var242 x1)) (not(var308 x)))))))
(assert (forall ((x Bool))  (exists ((x1 Bool)) (and(GTE x x1)  (implies (var340 x1) (not(var351 x)))))))
(assert (forall ((x Bool))  (exists ((x1 Bool)) (and(GTE x x1)  (implies (var257 x1) (var13 x))))))
(assert (forall ((x Bool))  (exists ((x1 Bool)) (and(GTE x x1)  (implies (not(var75 x1)) (not(var355 x)))))))
(assert (forall ((x Bool))  (exists ((x1 Bool)) (and(GTE x x1)  (implies (var366 x1) (not(var32 x)))))))
(assert (forall ((x Bool))  (exists ((x1 Bool)) (and(GTE x x1)  (implies (var228 x1) (not(var29 x)))))))
(assert (forall ((x Bool))  (exists ((x1 Bool)) (and(GTE x x1)  (implies (not(var289 x1)) (not(var294 x)))))))
(assert (forall ((x Bool))  (exists ((x1 Bool)) (and(GTE x x1)  (implies (not(var140 x1)) (var295 x))))))
(assert (forall ((x Bool))  (exists ((x1 Bool)) (and(GTE x x1)  (implies (not(var364 x1)) (var119 x))))))
(assert (forall ((x Bool))  (exists ((x1 Bool)) (and(GTE x x1)  (implies (not(var73 x1)) (var51 x))))))
(assert (forall ((x Bool))  (exists ((x1 Bool)) (and(GTE x x1)  (implies (var151 x1) (var213 x))))))
(assert (forall ((x Bool))  (exists ((x1 Bool)) (and(GTE x x1)  (implies (not(var202 x1)) (not(var97 x)))))))
(assert (forall ((x Bool))  (exists ((x1 Bool)) (and(GTE x x1)  (implies (var399 x1) (var219 x))))))
(assert (forall ((x Bool))  (exists ((x1 Bool)) (and(GTE x x1)  (implies (not(var244 x1)) (not(var346 x)))))))
(assert (forall ((x Bool))  (exists ((x1 Bool)) (and(GTE x x1)  (implies (var4 x1) (not(var385 x)))))))
(assert (forall ((x Bool))  (exists ((x1 Bool)) (and(GTE x x1)  (implies (var153 x1) (not(var357 x)))))))
(assert (forall ((x Bool))  (exists ((x1 Bool)) (and(GTE x x1)  (implies (var212 x1) (var390 x))))))
(assert (forall ((x Bool))  (exists ((x1 Bool)) (and(GTE x x1)  (implies (not(var41 x1)) (not(var38 x)))))))
(assert (forall ((x Bool))  (exists ((x1 Bool)) (and(GTE x x1)  (implies (not(var130 x1)) (var106 x))))))
(assert (forall ((x Bool))  (exists ((x1 Bool)) (and(GTE x x1)  (implies (not(var324 x1)) (not(var183 x)))))))
(assert (forall ((x Bool))  (exists ((x1 Bool)) (and(GTE x x1)  (implies (not(var227 x1)) (not(var118 x)))))))
(assert (forall ((x Bool))  (exists ((x1 Bool)) (and(GTE x x1)  (implies (var327 x1) (not(var133 x)))))))
(assert (forall ((x Bool))  (exists ((x1 Bool)) (and(GTE x x1)  (implies (var363 x1) (not(var312 x)))))))
(assert (forall ((x Bool))  (exists ((x1 Bool)) (and(GTE x x1)  (implies (not(var292 x1)) (var175 x))))))
(check-sat)
(get-model)
